proble size: m = 5 , n = 5 , seed = 3 
Benders' cuts separated to cut off: Only integer infeasible solutions.
seed = 3
Version identifier: 20.1.0.0 | 2020-11-10 | 9bedb6d68
CPXPARAM_Threads                                 1
CPXPARAM_RandomSeed                              3
CPXPARAM_MIP_Strategy_CallbackReducedLP          0
CPXPARAM_MIP_Strategy_Search                     1
CPXPARAM_TimeLimit                               3600
CPXPARAM_MIP_Tolerances_AbsMIPGap                0
CPXPARAM_MIP_Tolerances_MIPGap                   0
Legacy callback                                  L
Tried aggregator 1 time.
Reduced MIP has 20 rows, 420 columns, and 400 nonzeros.
Reduced MIP has 400 binaries, 0 generals, 0 SOSs, and 0 indicators.
Presolve time = 0.04 sec. (0.16 ticks)
Probing time = 0.00 sec. (0.32 ticks)
Clique table members: 20.
MIP emphasis: balance optimality and feasibility.
MIP search method: traditional branch-and-cut.
Parallel mode: none, using 1 thread.
Root relaxation solution time = 0.03 sec. (0.09 ticks)

        Nodes                                         Cuts/
   Node  Left     Objective  IInf  Best Integer    Best Bound    ItCnt     Gap         Variable B NodeID Parent  Depth

      0     0        0.0000    16                      0.0000        0         
*     0+    0                          497.4853        0.0000           100.00%
*     0+    0                          367.9887        0.0000           100.00%
      0     0       79.2553    22      367.9887      Fract: 6       12   78.46%
*     0+    0                          366.0451       79.2553            78.35%
*     0+    0                          291.1213       79.2553            72.78%
      0     0      117.2391    19      291.1213      Fract: 9       34   59.73%
*     0+    0                          250.7955      117.2391            53.25%
*     0+    0                          192.4820      117.2391            39.09%
*     0+    0                          185.4126      117.2391            36.77%
      0     2      135.3319    29      185.4126      135.3336       34   27.01%                        0             0
Elapsed time = 0.20 sec. (14.29 ticks, tree = 0.01 MB, solutions = 7)
*    10+   10                          145.1256      135.7161             6.48%
*    30+   19                          144.8852      136.5660             5.74%
*    60+   34                          144.7896      136.5660             5.68%
*   110+   62                          144.3985      136.9055             5.19%
*   160+   83                          144.1514      138.1502             4.16%
*   210+  106                          143.7606      138.5870             3.60%
*   250+   99                          142.7028      138.8258             2.72%
*   440+  149                          142.3714      139.6336             1.92%
*   880+  143                          142.1070      140.9952             0.78%

Gomory fractional cuts applied:  11
User cuts applied:  87

Root node processing (before b&c):
  Real time             =    0.19 sec. (14.34 ticks)
Sequential b&c:
  Real time             =    0.22 sec. (190.52 ticks)
                          ------------
Total (root+branch&cut) =    0.41 sec. (204.86 ticks)

Solution status: 101
Objective value:  1.4210700000e+02
Solution status is CPX_STAT_OPTIMAL
Node: 1074
